Copyright (C) 2013-2015, Filipe Brandao
Build (method = -2)
  #dp: 14981
  Step-3' Graph: 161 vertices and 6223 arcs (0.02s)
  Step-4' Graph: 159 vertices and 6219 arcs (0.02s)
  #V4/#V3 = 0.99
  #A4/#A3 = 1.00
Ready! (0.02s)
Optimize a model with 277 rows, 6220 columns and 18350 nonzeros
Found heuristic solution: objective 384
Presolve removed 42 rows and 42 columns
Presolve time: 0.03s
Presolved: 235 rows, 6178 columns, 18191 nonzeros
Variable types: 0 continuous, 6178 integer (676 binary)
Optimize a model with 235 rows, 6178 columns and 18191 nonzeros
Presolved: 235 rows, 6178 columns, 18191 nonzeros

Root barrier log...

Ordering time: 0.00s

Barrier statistics:
 AA' NZ     : 1.177e+04
 Factor NZ  : 1.823e+04 (roughly 3 MBytes of memory)
 Factor Ops : 1.924e+06 (less than 1 second per iteration)
 Threads    : 1

                  Objective                Residual
Iter       Primal          Dual         Primal    Dual     Compl     Time
   0   1.15269365e+04 -8.86708722e+04  6.82e+04 5.65e-02  8.53e+01     0s
   1   3.27067875e+03 -3.26908332e+04  9.31e+03 7.77e-16  1.32e+01     0s
   2   9.39381664e+02 -1.35182966e+04  1.24e+03 2.27e-02  2.39e+00     0s
   3   5.65385650e+02 -3.80774299e+03  2.02e+02 3.18e-03  4.93e-01     0s
   4   4.41455138e+02 -1.50837738e+03  7.59e+01 9.33e-04  1.96e-01     0s
   5   4.02439071e+02 -7.96748641e+02  4.10e+01 4.39e-04  1.12e-01     0s
   6   3.84882074e+02 -5.68083941e+02  3.27e+01 2.17e-04  8.76e-02     0s
   7   3.67097178e+02 -4.07944630e+02  2.57e+01 6.12e-05  7.02e-02     0s
   8   3.09331686e+02 -2.01324505e+02  1.00e+01 1.11e-15  4.39e-02     0s
   9   2.40970430e+02 -3.32079867e+01  3.69e+00 4.44e-16  2.29e-02     0s
  10   2.16615474e+02  7.09659163e+00  2.47e+00 3.35e-16  1.74e-02     0s
  11   1.86097328e+02  7.29120345e+01  1.26e+00 3.51e-16  9.33e-03     0s
  12   1.78576221e+02  8.26881111e+01  9.77e-01 3.68e-16  7.88e-03     0s
  13   1.70838357e+02  9.99905454e+01  6.64e-01 3.10e-16  5.80e-03     0s
  14   1.65521272e+02  1.21107680e+02  3.50e-01 2.59e-16  3.61e-03     0s
  15   1.61865338e+02  1.32119622e+02  2.25e-01 2.76e-16  2.41e-03     0s
  16   1.58766247e+02  1.39752810e+02  6.82e-02 2.51e-16  1.53e-03     0s
  17   1.57722416e+02  1.47394088e+02  3.78e-02 2.40e-16  8.33e-04     0s
  18   1.56577172e+02  1.51650052e+02  7.23e-03 3.33e-16  3.97e-04     0s
  19   1.56312956e+02  1.53389127e+02  4.17e-03 2.22e-16  2.35e-04     0s
  20   1.56144006e+02  1.54196468e+02  2.46e-03 2.22e-16  1.57e-04     0s
  21   1.56079507e+02  1.55032399e+02  1.79e-03 3.33e-16  8.43e-05     0s
  22   1.56010886e+02  1.55397681e+02  1.19e-03 4.44e-16  4.94e-05     0s
  23   1.55993690e+02  1.55452518e+02  1.07e-03 2.22e-16  4.36e-05     0s
  24   1.55958517e+02  1.55580539e+02  8.23e-04 2.32e-16  3.04e-05     0s
  25   1.55948167e+02  1.55749740e+02  6.83e-04 2.22e-16  1.60e-05     0s
  26   1.55885813e+02  1.55878143e+02  2.91e-13 2.79e-16  6.17e-07     0s
  27   1.55885001e+02  1.55884993e+02  2.47e-13 2.72e-16  6.18e-10     0s
  28   1.55885000e+02  1.55885000e+02  3.91e-13 3.33e-16  6.18e-13     0s

Barrier solved model in 28 iterations and 0.08 seconds
Optimal objective 1.55885000e+02


Root relaxation: objective 1.558850e+02, 4150 iterations, 0.11 seconds

    Nodes    |    Current Node    |     Objective Bounds      |     Work
 Expl Unexpl |  Obj  Depth IntInf | Incumbent    BestBd   Gap | It/Node Time

     0     0  155.88500    0   77  384.00000  155.88500  59.4%     -    0s
H    0     0                     157.0000000  155.88500  0.71%     -    0s
H    0     0                     156.0000000  155.88500  0.07%     -    0s

Explored 0 nodes (6059 simplex iterations) in 0.33 seconds
Thread count was 1 (of 4 available processors)

Optimal solution found (tolerance 0.00e+00)
Best objective 1.560000000000e+02, best bound 1.560000000000e+02, gap 0.0%
Preprocessing time: 0.03 seconds
Gurobi run time: 0.33 seconds
Total run time: 0.36 seconds
Objective: 156
Solution:
1 x [i=1, i=79]
1 x [i=2, i=79]
1 x [i=2, i=100, i=117]
2 x [i=3, i=77]
3 x [i=4, i=76]
2 x [i=5, i=75]
1 x [i=5, i=97, i=116]
1 x [i=6, i=74]
1 x [i=7, i=73]
3 x [i=8, i=94, i=116]
1 x [i=8, i=105, i=113]
3 x [i=9, i=71]
2 x [i=10, i=70]
4 x [i=10, i=101, i=108]
3 x [i=11, i=69]
1 x [i=12, i=68]
4 x [i=13, i=67]
3 x [i=13, i=89, i=116]
1 x [i=13, i=100, i=106]
1 x [i=13, i=101, i=105]
1 x [i=14, i=107, i=117, i=118]
4 x [i=15, i=65]
1 x [i=15, i=91, i=112]
4 x [i=16, i=64]
1 x [i=16, i=91, i=111]
3 x [i=17, i=83, i=118]
5 x [i=18, i=63]
2 x [i=19, i=62]
3 x [i=20, i=61]
1 x [i=20, i=80, i=118]
2 x [i=21, i=60]
1 x [i=21, i=91, i=107]
4 x [i=22, i=59]
2 x [i=23, i=58]
2 x [i=24, i=57]
1 x [i=24, i=91, i=105]
1 x [i=24, i=95, i=100]
1 x [i=24, i=96, i=100]
1 x [i=25, i=56]
1 x [i=25, i=78, i=115]
2 x [i=26, i=55]
4 x [i=27, i=54]
1 x [i=28, i=53]
1 x [i=28, i=89, i=105]
1 x [i=29, i=52]
2 x [i=30, i=51]
2 x [i=30, i=73, i=115]
1 x [i=30, i=90, i=100]
4 x [i=31, i=50]
2 x [i=32, i=49]
1 x [i=33, i=74, i=111]
4 x [i=34, i=47]
1 x [i=34, i=79, i=106]
1 x [i=35, i=46]
2 x [i=35, i=66, i=117]
1 x [i=35, i=84, i=101]
3 x [i=35, i=88, i=96]
2 x [i=36, i=44]
1 x [i=36, i=80, i=102]
1 x [i=37, i=43]
4 x [i=38, i=42]
4 x [i=39, i=41]
1 x [i=40, i=86, i=92]
2 x [i=43, i=58, i=117]
2 x [i=43, i=68, i=107]
1 x [i=43, i=73, i=102]
1 x [i=43, i=81, i=94]
1 x [i=45, i=71, i=102]
1 x [i=48, i=66, i=104]
4 x [i=52, i=80, i=86]
1 x [i=52, i=83, i=83]
1 x [i=55, i=56, i=108]
1 x [i=55, i=62, i=102]
3 x [i=56, i=60, i=103]
1 x [i=62, i=73, i=83]
1 x [i=63, i=93, i=110, i=113, i=114]
1 x [i=72, i=92, i=93, i=99]
1 x [i=72, i=93, i=97, i=99]
3 x [i=77, i=82, i=87, i=109]
1 x [i=82, i=89, i=90, i=96]
1 x [i=83, i=89, i=101, i=108, i=113]
1 x [i=84, i=95, i=98, i=105, i=112]
1 x [i=85, i=92, i=100, i=101, i=116]
1 x [i=91, i=95, i=98, i=98, i=112]
